NAME : portcgen-30-25
COMMENT : portcgen N=30, seed=25
TYPE : TSP
DIMENSION : 30
EDGE_WEIGHT_TYPE : EUC_2D
NODE_COORD_SECTION
1 -157412 337674
2 -247674 -290605
3 -21862 -256791
4 -180960 8630
5 62362 -6983
6 -14657 97214
7 -123261 -176342
8 97668 -83496
9 228872 171147
10 51948 -82446
11 584293 33983
12 -309129 -307368
13 70868 95977
14 17819 -98924
15 -195455 -148384
16 109544 198485
17 39650 -214384
18 2159 -109275
19 -68511 -51509
20 49178 -18700
21 -40545 -205473
22 -281169 70263
23 -32791 -104263
24 -154643 283401
25 269488 -150158
26 -123143 -44945
27 22735 -320159
28 -168116 321433
29 208352 72739
30 230968 184322
